c 
c G(k,n,p) graph
c graph gen seed     : 6320
c number of vertices : 50
c max number of edges: 625
c number of classes  : 2
c edge density       : 0.200000
c edge probability   : 0.400000
c data structure     : sparse
c
c           Graph Stats
c number of vertices  : 50
c nonisolated vertices: 50
c number of edges     : 257
c edge density        : 0.209796
c max degree          : 16
c avg degree          : 10.28
c min degree          : 5
p col 50 257
e 1 50
e 1 43
e 1 42
e 1 40
e 1 37
e 1 18
e 1 14
e 2 42
e 2 38
e 2 35
e 2 30
e 2 22
e 2 18
e 2 16
e 2 14
e 2 12
e 2 10
e 2 9
e 2 6
e 2 5
e 2 4
e 3 45
e 3 43
e 3 38
e 3 35
e 3 28
e 3 22
e 3 12
e 3 9
e 3 6
e 4 49
e 4 36
e 4 34
e 4 25
e 4 20
e 4 15
e 4 7
e 5 48
e 5 47
e 5 44
e 5 41
e 5 33
e 5 31
e 5 29
e 5 27
e 5 24
e 5 21
e 5 20
e 5 19
e 5 15
e 5 8
e 5 7
e 6 44
e 6 41
e 6 34
e 6 33
e 6 31
e 6 25
e 6 24
e 6 15
e 6 8
e 7 42
e 7 37
e 7 32
e 7 16
e 8 50
e 8 45
e 8 43
e 8 35
e 8 30
e 8 22
e 8 16
e 8 13
e 8 12
e 8 11
e 8 9
e 9 31
e 9 29
e 9 26
e 9 23
e 9 20
e 9 15
e 10 49
e 10 41
e 10 36
e 10 34
e 10 33
e 10 31
e 10 24
e 10 20
e 10 17
e 11 47
e 11 46
e 11 44
e 11 33
e 11 29
e 11 27
e 11 24
e 11 21
e 11 20
e 11 17
e 12 49
e 12 48
e 12 41
e 12 36
e 12 27
e 12 26
e 12 25
e 12 21
e 13 44
e 13 36
e 13 34
e 13 33
e 13 31
e 13 26
e 13 25
e 13 24
e 13 21
e 13 17
e 14 48
e 14 47
e 14 46
e 14 44
e 14 36
e 14 31
e 14 29
e 14 25
e 14 23
e 14 19
e 14 17
e 14 15
e 15 39
e 15 37
e 15 35
e 16 49
e 16 48
e 16 47
e 16 46
e 16 44
e 16 33
e 16 31
e 16 20
e 16 19
e 16 17
e 17 50
e 17 35
e 17 22
e 18 48
e 18 46
e 18 44
e 18 41
e 18 25
e 18 23
e 18 20
e 19 45
e 19 37
e 19 35
e 19 30
e 19 28
e 20 43
e 20 39
e 20 37
e 20 32
e 20 30
e 20 28
e 21 45
e 21 40
e 21 32
e 21 28
e 22 46
e 22 41
e 22 36
e 22 34
e 22 29
e 22 25
e 22 23
e 23 43
e 23 42
e 23 32
e 23 30
e 24 39
e 24 38
e 24 32
e 24 28
e 25 42
e 25 39
e 25 37
e 25 28
e 26 40
e 26 28
e 27 50
e 27 45
e 27 43
e 27 42
e 27 39
e 27 35
e 27 32
e 28 49
e 28 48
e 28 46
e 28 44
e 28 41
e 28 36
e 28 34
e 28 31
e 29 45
e 29 42
e 29 40
e 29 37
e 29 32
e 30 49
e 30 47
e 30 33
e 31 39
e 31 38
e 32 48
e 32 44
e 32 36
e 33 39
e 33 35
e 34 50
e 34 45
e 34 40
e 34 39
e 34 38
e 34 35
e 35 49
e 35 46
e 35 41
e 36 50
e 36 45
e 36 42
e 36 40
e 36 38
e 37 49
e 37 47
e 37 46
e 38 49
e 38 47
e 38 44
e 39 47
e 39 41
e 40 47
e 40 46
e 40 44
e 41 50
e 41 43
e 41 42
e 42 48
e 42 47
e 42 46
e 42 44
e 43 49
e 43 47
e 43 46
e 45 47
e 46 50
